# Objective value = 0
A_0_0 0
A_1_0 0
A_1_1 0
A_2_0 0
A_2_1 1.0000000000000002e+00
A_2_2 0
A_3_0 0
A_3_1 -1.0000000000000002e+00
A_3_2 -1.0000000000000002e+00
A_3_3 0
A_4_0 0
A_4_1 0
A_4_2 1.0000000000000002e+00
A_4_3 0
A_4_4 0
z1_0 0
z1_1 0
z1_2 0
z1_3 0
z1_4 0
z1_5 0
z1_6 0
z1_7 0
z1_8 0
z1_9 0
z2_0 0
z2_1 0
z2_2 0
z2_3 0
z2_4 0
z2_5 0
z2_6 0
z2_7 0
z2_8 0
z2_9 0
z3_0 0
z3_1 0
z3_2 0
z3_3 0
z3_4 0
z3_5 0
z3_6 0
z3_7 0
z3_8 0
z3_9 0
z4_0 0
z4_1 0
z4_2 0
z4_3 0
z4_4 0
z4_5 0
z4_6 0
z4_7 0
z4_8 0
z4_9 0
z11_0 0
z11_1 0
z11_2 0
z11_3 0
z11_4 0
z11_5 0
z11_6 0
z11_7 0
z11_8 0
z11_9 0
z22_0 0
z22_1 0
z22_2 0
z22_3 0
z22_4 0
z22_5 0
z22_6 0
z22_7 0
z22_8 0
z22_9 0
z33_0 0
z33_1 0
z33_2 0
z33_3 0
z33_4 0
z33_5 0
z33_6 0
z33_7 0
z33_8 0
z33_9 0
z44_0 0
z44_1 0
z44_2 0
z44_3 0
z44_4 0
z44_5 0
z44_6 0
z44_7 0
z44_8 0
z44_9 0
norm1_9 0
norm2_9 0
norm3_9 0
norm4_9 0
norm11_9 0
norm22_9 0
norm33_9 0
norm44_9 0
